 # Version information for this restart file 
 # current date 2024-02-26 20:08:38.656
 # current working dir /gpfsdswork/projects/rech/zqm/uiq94ea/structures_SiCN/ceramicNetworkBuilder/Simulations_with_voids/methode_1_200_atomes_initial/SiCNH_200/Simulations_MD/SGCPMD/essais_restart/extension_pallier_1800K/13.17_angstroms/tuto_aiida
 # Program compiled at                              Mon Sep 9 16:32:45 CEST 2019
 # Program compiled on                                                 idradmsup
 # Program compiled for                                 linux-rhel7-x86_64-intel
 # Source code revision number                                         svn:18464
 &GLOBAL
   PRINT_LEVEL  LOW
   PROJECT_NAME SiCN
   RUN_TYPE  MD
   WALLTIME 01:30:00
 &END GLOBAL
 &MOTION
   &MD
     ENSEMBLE  LANGEVIN
     STEPS  7500
     TIMESTEP     1.9999999999999998E+00
     STEP_START_VAL  1481
     TIME_START_VAL     2.9620000000000286E+03
     ECONS_START_VAL    -1.0346616299469049E+03
     TEMPERATURE     3.0000000000000000E+02
     &LANGEVIN
       GAMMA     9.9999999999999992E-02
       NOISY_GAMMA     2.9999999999999995E-02
     &END LANGEVIN
     &AVERAGES  T
       &RESTART_AVERAGES
         ITIMES_START  1
         AVECPU     3.6457171320055588E+00
         AVEHUGONIOT     0.0000000000000000E+00
         AVETEMP_BARO     0.0000000000000000E+00
         AVEPOT    -1.0353802978573644E+03
         AVEKIN     2.7369720860854951E-01
         AVETEMP     2.8953648134131868E+02
         AVEKIN_QM     0.0000000000000000E+00
         AVETEMP_QM     0.0000000000000000E+00
         AVEVOL     1.5415369239241209E+04
         AVECELL_A     2.4887693170104161E+01
         AVECELL_B     2.4887693170104161E+01
         AVECELL_C     2.4887693170104161E+01
         AVEALPHA     9.0000000000000000E+01
         AVEBETA     9.0000000000000000E+01
         AVEGAMMA     9.0000000000000000E+01
         AVE_ECONS    -7.0254285730924664E+02
         AVE_PRESS     2.9760695675056457E+04
         AVE_PXX     2.0229251252930037E+04
       &END RESTART_AVERAGES
     &END AVERAGES
   &END MD
   &PRINT
     &TRAJECTORY  SILENT
       &EACH
         MD  1
       &END EACH
     &END TRAJECTORY
     &VELOCITIES  OFF
     &END VELOCITIES
     &FORCES  OFF
     &END FORCES
     &STRESS  ON
       FILENAME pressure
       &EACH
         MD  1
       &END EACH
     &END STRESS
     &RESTART  SILENT
       BACKUP_COPIES  2
       &EACH
         MD  1
       &END EACH
     &END RESTART
     &RESTART_HISTORY  SILENT
       &EACH
         MD  1000
       &END EACH
     &END RESTART_HISTORY
   &END PRINT
 &END MOTION
 &FORCE_EVAL
   METHOD  QS
   STRESS_TENSOR  ANALYTICAL
   &DFT
     BASIS_SET_FILE_NAME /gpfslocalsup/spack_soft/cp2k/6.1/intel-19.0.4-2che3reso4wbexi7dfjaaqfmtyzu3l7q/share/data/GTH_BASIS_SETS
     BASIS_SET_FILE_NAME /gpfslocalsup/spack_soft/cp2k/6.1/intel-19.0.4-2che3reso4wbexi7dfjaaqfmtyzu3l7q/share/data/BASIS_MOLOPT_UCL
     POTENTIAL_FILE_NAME /gpfslocalsup/spack_soft/cp2k/6.1/intel-19.0.4-2che3reso4wbexi7dfjaaqfmtyzu3l7q/share/data/GTH_POTENTIALS
     &SCF
       MAX_SCF  30
       MAX_SCF_HISTORY  2
       EPS_SCF     9.9999999999999995E-07
       SCF_GUESS  RESTART
       &OT  T
         MINIMIZER  CG
         LINESEARCH  3PNT
         STEPSIZE     2.9999999999999999E-02
         PRECONDITIONER  FULL_SINGLE_INVERSE
         ENERGY_GAP     1.0000000000000000E-02
       &END OT
       &DIAGONALIZATION  F
       &END DIAGONALIZATION
       &OUTER_SCF  T
         EPS_SCF     9.9999999999999995E-07
         MAX_SCF  30
       &END OUTER_SCF
       &MIXING  T
         METHOD  BROYDEN_MIXING
         ALPHA     2.9999999999999999E-01
         NBUFFER  8
       &END MIXING
       &PRINT
         &RESTART  SILENT
           BACKUP_COPIES  2
           &EACH
             QS_SCF  30
           &END EACH
         &END RESTART
         &RESTART_HISTORY  SILENT
           BACKUP_COPIES  2
         &END RESTART_HISTORY
       &END PRINT
     &END SCF
     &QS
       EPS_DEFAULT     9.9999999999999998E-13
       EXTRAPOLATION  ASPC
       EXTRAPOLATION_ORDER  0
       METHOD  GPW
     &END QS
     &MGRID
       CUTOFF     4.0000000000000000E+02
       REL_CUTOFF     5.0000000000000000E+01
     &END MGRID
     &XC
       DENSITY_CUTOFF     1.0000000000000000E-10
       GRADIENT_CUTOFF     1.0000000000000000E-10
       TAU_CUTOFF     1.0000000000000000E-10
       &XC_FUNCTIONAL  NO_SHORTCUT
         &PBE  T
         &END PBE
       &END XC_FUNCTIONAL
     &END XC
     &PRINT
     &END PRINT
   &END DFT
   &SUBSYS
     &RNG_INIT
Wiener process for particle 1            1 F T T  -1.9724597117758971E+00         535878247.0        3064934902.0        1570594147.0        2185313105.0        1429062820.0        1305555138.0             12345.0             12345.0             12345.0             12345.0             12345.0             12345.0             12345.0             12345.0             12345.0             12345.0             12345.0             12345.0
Wiener process for particle 2            1 F T T  -2.5338863796132084E-02         802760818.0        4075304502.0        2106550117.0        2723038533.0        1987288461.0        3730283495.0        3692455944.0        1366884236.0        2968912127.0         335948734.0        4161675175.0         475798818.0        3692455944.0        1366884236.0        2968912127.0         335948734.0        4161675175.0         475798818.0
Wiener process for particle 3            1 F T T   7.7669688698723605E-01        3733236023.0        1317729893.0         257701761.0        2568271092.0        1654963456.0        3097568436.0        1015873554.0        1310354410.0        2249465273.0         994084013.0        2912484720.0        3876682925.0        1015873554.0        1310354410.0        2249465273.0         994084013.0        2912484720.0        3876682925.0
Wiener process for particle 4            1 F T T   8.0953881932029836E-01        1535357055.0         588637348.0        1373035150.0        3721574748.0        1519680848.0        2053948748.0        2338701263.0        1119171942.0        2570676563.0         317077452.0        3194180850.0         618832124.0        2338701263.0        1119171942.0        2570676563.0         317077452.0        3194180850.0         618832124.0
Wiener process for particle 5            1 F T T   5.7635628025122254E-01        4175280251.0         406782611.0        3201590536.0        1188150951.0         674928321.0        1133042197.0        1597262096.0        3906379055.0        3312112953.0        1016013135.0        4099474108.0         275305423.0        1597262096.0        3906379055.0        3312112953.0        1016013135.0        4099474108.0         275305423.0
Wiener process for particle 6            1 F T T  -1.5014528090069670E+00         287230281.0        2396329698.0         670073916.0         596094683.0        1365652157.0        4195770681.0          97147054.0        3131372450.0         829345164.0        3691032523.0        3006063034.0        4259826321.0          97147054.0        3131372450.0         829345164.0        3691032523.0        3006063034.0        4259826321.0
Wiener process for particle 7            1 F T T  -6.2968523075262084E-01        1618155140.0        1038002842.0        1356999370.0        3543158589.0         800487258.0        2937351592.0         796079799.0        2105258207.0         955365076.0        2923159030.0        4116632677.0        3067683584.0         796079799.0        2105258207.0         955365076.0        2923159030.0        4116632677.0        3067683584.0
Wiener process for particle 8            1 F T T  -7.1676069830992994E-01        3055235566.0        3190094578.0        3767278424.0         565715477.0        2048349452.0        4292522713.0        3281794178.0        2616230133.0        1457051261.0        2762791137.0        2480527362.0        2282316169.0        3281794178.0        2616230133.0        1457051261.0        2762791137.0        2480527362.0        2282316169.0
Wiener process for particle 9            1 F T T   1.3269847783053892E-01        3670385715.0        3143918478.0        3049348400.0        2828285985.0         100078446.0         535661513.0        3777646647.0        1837464056.0        4204654757.0         664239048.0        4190510072.0        2959195122.0        3777646647.0        1837464056.0        4204654757.0         664239048.0        4190510072.0        2959195122.0
Wiener process for particle 10           1 F T T  -3.4918806738258973E-01        1418438348.0        1193073558.0        1607602807.0        2296509406.0        3531251635.0        4157330042.0        4215590817.0        3862461878.0        1087200967.0        1544910132.0         936383720.0        1611370123.0        4215590817.0        3862461878.0        1087200967.0        1544910132.0         936383720.0        1611370123.0
Wiener process for particle 11           1 F T T   1.0531927812867390E+00        2336666385.0        2700999411.0         973877007.0        1271726965.0        3821452661.0         314887688.0        1683636369.0         362165168.0         814316280.0         869382050.0         980203903.0        2062101717.0        1683636369.0         362165168.0         814316280.0         869382050.0         980203903.0        2062101717.0
Wiener process for particle 12           1 F T T   1.6228708052837832E+00        3180349247.0        1672617547.0        2361804469.0        1689143691.0        3040788573.0        3415864879.0         272317999.0         166758548.0         310112982.0         201045826.0        1680231254.0         118290799.0         272317999.0         166758548.0         310112982.0         201045826.0        1680231254.0         118290799.0
Wiener process for particle 13           1 F T T  -2.2108901403909170E-01        1127069169.0         755034217.0         556016689.0        1908163199.0        2931008588.0        3788284617.0        2245755202.0        1652682525.0        2865544364.0         721509566.0         209733568.0         592362218.0        2245755202.0        1652682525.0        2865544364.0         721509566.0         209733568.0         592362218.0
Wiener process for particle 14           1 F T T  -1.4513230803675332E+00        3340724929.0        3387439717.0        1574424165.0        2602636070.0        1562230972.0         949227278.0        3003961408.0        3529909391.0          14538032.0        3603919910.0         566682685.0        1235016484.0        3003961408.0        3529909391.0          14538032.0        3603919910.0         566682685.0        1235016484.0
Wiener process for particle 15           1 F T T  -1.0765803628308868E+00        4009368702.0        2649588260.0         848848452.0        2458196093.0        1306656258.0        1660147279.0         596094074.0        2279636413.0        3050913596.0        1739649456.0        2368706608.0        3058697049.0         596094074.0        2279636413.0        3050913596.0        1739649456.0        2368706608.0        3058697049.0
Wiener process for particle 16           1 F T T  -1.3303666727234329E+00        1424450509.0         392733335.0        3592502620.0        3037920569.0        3863042790.0        4169951756.0        1437096527.0        2547142266.0        2541498983.0        2640839690.0        2160978219.0        2618657830.0        1437096527.0        2547142266.0        2541498983.0        2640839690.0        2160978219.0        2618657830.0
Wiener process for particle 17           1 F T T   2.9115571937260545E+00        3545118044.0        2536989355.0        3331368619.0        1688868083.0         168033393.0         775381425.0        3224044943.0        1227141655.0        2220611050.0        1504589054.0        2829780440.0         108189859.0        3224044943.0        1227141655.0        2220611050.0        1504589054.0        2829780440.0         108189859.0
Wiener process for particle 18           1 F T T   1.4186276177116919E+00         268817034.0        3967753128.0        2712967444.0        3213578125.0         591345920.0         129880204.0         927434978.0        1593504038.0        2143021818.0        1749489845.0        1330187821.0        2371554242.0         927434978.0        1593504038.0        2143021818.0        1749489845.0        1330187821.0        2371554242.0
Wiener process for particle 19           1 F T T  -1.3043312274915546E+00        4113411946.0         469687299.0        1977358417.0        1547229783.0        3251322520.0        2252220662.0        3446225690.0         835741554.0        2195834023.0        1297741021.0        3357053382.0         383824268.0        3446225690.0         835741554.0        2195834023.0        1297741021.0        3357053382.0         383824268.0
Wiener process for particle 20           1 F T T   2.1116861909168501E+00        2333449890.0         816892328.0        2162819532.0        1701614328.0        2538800259.0        4009321560.0        3984477137.0        1267973573.0        3770063761.0         216527865.0        1568537936.0        1200352663.0        3984477137.0        1267973573.0        3770063761.0         216527865.0        1568537936.0        1200352663.0
Wiener process for particle 21           1 F T T   7.7656334841500096E-01         459591100.0        4241370430.0        1488009748.0        3156448942.0         328365450.0        1198405686.0        2503334853.0        3179736892.0        2080184241.0        2881517721.0        3611607237.0        2639045213.0        2503334853.0        3179736892.0        2080184241.0        2881517721.0        3611607237.0        2639045213.0
Wiener process for particle 22           1 F T T  -2.8054524005861609E-01        3048745097.0        2527265032.0        1482671276.0        2064130326.0        2129772824.0        2346587395.0        2784301963.0        3004110709.0        4065265451.0        2351994899.0        1824839263.0        1473060447.0        2784301963.0        3004110709.0        4065265451.0        2351994899.0        1824839263.0        1473060447.0
Wiener process for particle 23           1 F T T   4.1128084202616838E-01        2436051055.0        3863425310.0        1347814888.0        3087285081.0         730457621.0        4093329416.0        3645411182.0        1391027122.0        3995023402.0         536114258.0        1376034799.0        2391282907.0        3645411182.0        1391027122.0        3995023402.0         536114258.0        1376034799.0        2391282907.0
Wiener process for particle 24           1 F T T  -1.0482599602613913E+00        2381640413.0        1814211829.0        3346574898.0         664494269.0        1204839349.0        1952431914.0        4205039797.0        2998067142.0        2737381050.0        2060484144.0          21123025.0         900610517.0        4205039797.0        2998067142.0        2737381050.0        2060484144.0          21123025.0         900610517.0
Wiener process for particle 25           1 F T T  -1.2068653933701625E+00        2740668934.0        1792001433.0          42864433.0        1851630983.0        4122103275.0        1240322979.0        1708138263.0        1103344630.0        3131738563.0         354874525.0        1462105562.0        2799820805.0        1708138263.0        1103344630.0        3131738563.0         354874525.0        1462105562.0        2799820805.0
Wiener process for particle 26           1 F T T  -2.7539535183277800E-02         619989503.0        3282223383.0        1552758164.0         505916432.0        1144119581.0        1745437427.0        1762624356.0        3338520614.0        1869672149.0        2420033342.0        3823777008.0        4112813433.0        1762624356.0        3338520614.0        1869672149.0        2420033342.0        3823777008.0        4112813433.0
Wiener process for particle 27           1 F T T   1.3206171809890623E+00        3551588659.0        3660209370.0        2133519267.0        4086146422.0         283643718.0        1250626632.0        1406960847.0        2689758640.0        2086764669.0        1479781266.0        4277003072.0        4173905453.0        1406960847.0        2689758640.0        2086764669.0        1479781266.0        4277003072.0        4173905453.0
Wiener process for particle 28           1 F T T   4.0808254324297383E-01        1178137020.0        2349978692.0         985579077.0        1785841809.0        4160808074.0        1179925812.0        3217706054.0        3907922111.0        3316415646.0         934936431.0        1155310743.0        1383590847.0        3217706054.0        3907922111.0        3316415646.0         934936431.0        1155310743.0        1383590847.0
Wiener process for particle 29           1 F T T   1.5850003351410111E+00        3575230628.0        1828631829.0        4281326377.0        3942460636.0        3082586877.0         257488556.0        2996242832.0        2506376012.0        1182520337.0         938957435.0        3286002927.0        1946707306.0        2996242832.0        2506376012.0        1182520337.0         938957435.0        3286002927.0        1946707306.0
Wiener process for particle 30           1 F T T   1.0467959593430196E+00        1054342339.0        2247523195.0        1135543620.0        1353396450.0        2763614692.0        2088022349.0        3757057907.0        1334546224.0        1509001838.0         991499802.0        1502864996.0         921145139.0        3757057907.0        1334546224.0        1509001838.0         991499802.0        1502864996.0         921145139.0
Wiener process for particle 31           1 F T T  -5.0934897289928838E-01        2329540525.0        2270236698.0        3219069885.0         274891885.0         481685253.0         587084938.0        3728532268.0         988545039.0        1631700325.0        1143954198.0        2209269908.0        1591407377.0        3728532268.0         988545039.0        1631700325.0        1143954198.0        2209269908.0        1591407377.0
Wiener process for particle 32           1 F T T   1.3187835142650581E-01        1837469778.0        2095587182.0        1553810730.0        4001197615.0        3713939822.0        4082342381.0        3294123071.0        1464634864.0        3721431761.0        2693241183.0        1754954480.0        3900039887.0        3294123071.0        1464634864.0        3721431761.0        2693241183.0        1754954480.0        3900039887.0
Wiener process for particle 33           1 F T T  -2.2143359496915518E-01        1946799998.0         400199480.0        1998626632.0        3568969130.0        3416367719.0        1133891654.0         131824893.0        3188611738.0        1376082626.0        2419937722.0        2563475034.0        1251594162.0         131824893.0        3188611738.0        1376082626.0        2419937722.0        2563475034.0        1251594162.0
Wiener process for particle 34           1 F T T   1.6496244607357657E+00         361667524.0         588798547.0        3990702360.0        1838690132.0        1656231097.0         161266722.0        3770164700.0        4029076745.0        1104720217.0        3496143152.0         735265587.0        3273706940.0        3770164700.0        4029076745.0        1104720217.0        3496143152.0         735265587.0        3273706940.0
Wiener process for particle 35           1 F T T   5.8710157018986064E-01        2807433449.0        3033674324.0         848479093.0        3445653322.0        3266518392.0        1284481130.0        2131062045.0        2455732983.0         789218840.0        1151705419.0         286383816.0         924846932.0        2131062045.0        2455732983.0         789218840.0        1151705419.0         286383816.0         924846932.0
Wiener process for particle 36           1 F T T  -8.0756835917612124E-01        3459304313.0        1777700556.0        2218166144.0        3640334605.0        1261944015.0         229755678.0        2053528341.0        4170407123.0        3515474899.0          98091789.0        1000335891.0        3854257602.0        2053528341.0        4170407123.0        3515474899.0          98091789.0        1000335891.0        3854257602.0
Wiener process for particle 37           1 F T T   1.0512506332379616E+00        1031722256.0        1996467481.0        1504092172.0        2971347562.0        3583720379.0        2157089419.0        2469807084.0           9172128.0        3362394154.0        4021928081.0        2651348937.0        2296225074.0        2469807084.0           9172128.0        3362394154.0        4021928081.0        2651348937.0        2296225074.0
Wiener process for particle 38           1 F T T  -2.9274268740471804E-01        3961306314.0        1951470042.0        1403546212.0        2006998026.0        1230679888.0        2085006010.0         794136241.0        1326962976.0        1423309168.0         588827532.0        1370684418.0        1646244893.0         794136241.0        1326962976.0        1423309168.0         588827532.0        1370684418.0        1646244893.0
Wiener process for particle 39           1 F T T   2.5162594422850360E-01        1406562464.0        2577499844.0        2108731307.0        1933831292.0        3762563093.0        3804269591.0        2866999578.0        1918106148.0        3899143652.0        2905238681.0        3298551408.0         326591245.0        2866999578.0        1918106148.0        3899143652.0        2905238681.0        3298551408.0         326591245.0
Wiener process for particle 40           1 F T T   2.1021298423703053E-01        3299446994.0        3871008941.0        1759661766.0        3873678592.0        1659893703.0        1611599830.0        3040096556.0        1206876890.0         780501254.0         597456198.0        1004013014.0        3962406934.0        3040096556.0        1206876890.0         780501254.0         597456198.0        1004013014.0        3962406934.0
Wiener process for particle 41           1 F T T  -4.7170716777243349E-01        3756020686.0        3024073366.0        1024383385.0        1807393518.0        2062274443.0        1047834463.0        3970659565.0        2743575038.0        4070166570.0         141329301.0        2711190398.0         148640829.0        3970659565.0        2743575038.0        4070166570.0         141329301.0        2711190398.0         148640829.0
Wiener process for particle 42           1 F T T   8.3586197783915084E-01        3339560493.0        1963563137.0         796257936.0        4232130470.0        2437345492.0        1370505898.0         216582539.0        3263278363.0        1880572884.0        3722908253.0         287018188.0         285207334.0         216582539.0        3263278363.0        1880572884.0        3722908253.0         287018188.0         285207334.0
Wiener process for particle 43           1 F T T  -1.0073500200476537E+00        3451117978.0        1155294477.0        2305206271.0        3635884817.0        3702654129.0         563657590.0        4258459985.0        1892494520.0        2510345890.0        2935846613.0        1134826799.0        1965241718.0        4258459985.0        1892494520.0        2510345890.0        2935846613.0        1134826799.0        1965241718.0
Wiener process for particle 44           1 F T T   1.7761434530505935E+00        3234810755.0        1146919163.0         220868318.0          84003846.0        2547359985.0        2463105662.0         578737695.0         119907309.0        1233642926.0        4159114509.0        3946997940.0          72299514.0         578737695.0         119907309.0        1233642926.0        4159114509.0        3946997940.0          72299514.0
Wiener process for particle 45           1 F T T  -8.6132330206516561E-01        1760122576.0        1280894510.0        2913532871.0        2244438002.0        4280667453.0        3106961499.0        2479155365.0        4125104013.0         170057196.0        2546874696.0        2945959743.0        4079518977.0        2479155365.0        4125104013.0         170057196.0        2546874696.0        2945959743.0        4079518977.0
Wiener process for particle 46           1 F T T   7.9457801270608264E-01        3837902662.0        1508925709.0        2739636792.0         981470691.0        2501458237.0         516383888.0        4016980097.0        3481660449.0         995889916.0        3015184182.0        4180728415.0        3263605701.0        4016980097.0        3481660449.0         995889916.0        3015184182.0        4180728415.0        3263605701.0
Wiener process for particle 47           1 F T T  -4.7426139770037551E-01        1115536694.0        3891907132.0         610513421.0        2668357253.0        3735208546.0        2423496749.0        1769249367.0        2243378503.0        3654912402.0        3067634031.0        2622402920.0         552187620.0        1769249367.0        2243378503.0        3654912402.0        3067634031.0        2622402920.0         552187620.0
Wiener process for particle 48           1 F T T   1.1050279518699697E+00        1932359007.0        3914371483.0         975826775.0        3769040894.0         383009841.0        2305838140.0        2210461626.0         810156371.0        1171187114.0        2260289774.0        3470472214.0        2062524891.0        2210461626.0         810156371.0        1171187114.0        2260289774.0        3470472214.0        2062524891.0
Wiener process for particle 49           1 F T T  -4.2693264935567976E-01        3597536627.0        3098413736.0        3723942043.0        1832603169.0        2086268370.0        3426736710.0        2967787448.0         410732989.0        1241813518.0        1154065742.0        1680293965.0        1718768485.0        2967787448.0         410732989.0        1241813518.0        1154065742.0        1680293965.0        1718768485.0
Wiener process for particle 50           1 F T T  -7.7765086074605749E-01        1009659629.0         344588783.0         193626724.0        2979780246.0        4102029475.0        2913524746.0        2667041740.0        4238911572.0        3694573673.0        3166543307.0        2525238380.0        2009058941.0        2667041740.0        4238911572.0        3694573673.0        3166543307.0        2525238380.0        2009058941.0
Wiener process for particle 51           1 F T T  -1.2277835210548056E+00         971939414.0        3141740948.0        2945955276.0        4082772832.0        1407427654.0        1619710221.0        1609088888.0         302146514.0        1337822968.0          32443790.0         663198624.0         108142314.0        1609088888.0         302146514.0        1337822968.0          32443790.0         663198624.0         108142314.0
Wiener process for particle 52           1 F T T   1.3917451751471903E+00        2509718555.0        2427667415.0        1963477042.0        1898534512.0        3252196030.0        1935981367.0        3500933258.0        1350819015.0        2732370233.0         555530171.0        4066946918.0         915552600.0        3500933258.0        1350819015.0        2732370233.0         555530171.0        4066946918.0         915552600.0
Wiener process for particle 53           1 F T T   5.2695078067309553E-01        1611164113.0        1767084632.0         267593145.0         811496276.0        2619918503.0        1021138619.0         193582114.0        3536931462.0        1061163334.0        2771375939.0        1968090767.0        2893840988.0         193582114.0        3536931462.0        1061163334.0        2771375939.0        1968090767.0        2893840988.0
Wiener process for particle 54           1 F T T   6.1610609537909744E-01        3360714450.0        1557416449.0        1297908052.0        1895954965.0        2206715245.0        4131040678.0        2904978947.0        1723463734.0        2986735812.0        3454199587.0         735074847.0        2431656074.0        2904978947.0        1723463734.0        2986735812.0        3454199587.0         735074847.0        2431656074.0
Wiener process for particle 55           1 F T T  -6.9326551541311787E-01        2942680474.0        3806343137.0        4221631369.0        2930392840.0        2728779174.0        2173282880.0        2966808121.0        3354520627.0         346101755.0        1263362009.0        4029540813.0        3080467228.0        2966808121.0        3354520627.0         346101755.0        1263362009.0        4029540813.0        3080467228.0
Wiener process for particle 56           1 F T T   4.3508619507078067E-01        2004144768.0        3164469765.0         956969637.0         342972114.0        3437755544.0        3203670156.0         569973296.0        3971015859.0        3727859896.0        2211808163.0        3074531219.0        1990606083.0         569973296.0        3971015859.0        3727859896.0        2211808163.0        3074531219.0        1990606083.0
Wiener process for particle 57           1 F T T  -1.2137553274650719E+00        2571752521.0        3190265830.0         245943308.0         630364670.0        2519279790.0        2444344666.0        3683590777.0        3859373512.0         297644217.0        3451581853.0         333484586.0        2062123863.0        3683590777.0        3859373512.0         297644217.0        3451581853.0         333484586.0        2062123863.0
Wiener process for particle 58           1 F T T  -7.8353018588911461E-01        1679958934.0        1908246668.0        3024091057.0        3210398338.0         741258080.0        1854916593.0         645531386.0        2789451056.0         574522196.0         570030963.0        3542619707.0         497013447.0         645531386.0        2789451056.0         574522196.0         570030963.0        3542619707.0         497013447.0